\ENCODING=ISO-8859-1
\Problem name: ilog.cplex

Maximize
 obj: 565 x(0)#0 + 601 x(1)#1 + 954 x(2)#2 + 1027 x(3)#3 + 955 x(4)#4
      + 653 x(5)#5 + 492 x(6)#6 + 737 x(7)#7 + 772 x(8)#8 + 625 x(9)#9
      + 547 x(10)#10 + 774 x(11)#11 + 778 x(12)#12 + 381 x(13)#13
      + 373 x(14)#14 + 580 x(15)#15 + 491 x(16)#16 + 986 x(17)#17
      + 704 x(18)#18 + 833 x(19)#19 + 786 x(20)#20 + 834 x(21)#21
      + 863 x(22)#22 + 599 x(23)#23 + 465 x(24)#24 + 718 x(25)#25
      + 594 x(26)#26 + 806 x(27)#27 + 710 x(28)#28 + 839 x(29)#29
      + 1082 x(30)#30 + 612 x(31)#31 + 613 x(32)#32 + 748 x(33)#33
      + 1006 x(34)#34 + 765 x(35)#35 + 506 x(36)#36 + 746 x(37)#37
      + 741 x(38)#38 + 578 x(39)#39 + 654 x(40)#40 + 622 x(41)#41
      + 697 x(42)#42 + 436 x(43)#43 + 794 x(44)#44 + 778 x(45)#45
      + 1142 x(46)#46 + 1139 x(47)#47 + 500 x(48)#48 + 587 x(49)#49
      + 754 x(50)#50 + 504 x(51)#51 + 423 x(52)#52 + 385 x(53)#53
      + 409 x(54)#54 + 907 x(55)#55 + 900 x(56)#56 + 940 x(57)#57
      + 888 x(58)#58 + 735 x(59)#59 + 558 x(60)#60 + 649 x(61)#61
      + 885 x(62)#62 + 1092 x(63)#63 + 593 x(64)#64 + 933 x(65)#65
      + 480 x(66)#66 + 416 x(67)#67 + 809 x(68)#68 + 537 x(69)#69
      + 672 x(70)#70 + 844 x(71)#71 + 762 x(72)#72 + 467 x(73)#73
      + 796 x(74)#74 + 756 x(75)#75 + 722 x(76)#76 + 608 x(77)#77
      + 913 x(78)#78 + 1001 x(79)#79 + 919 x(80)#80 + 1137 x(81)#81
      + 1032 x(82)#82 + 895 x(83)#83 + 351 x(84)#84 + 979 x(85)#85
      + 493 x(86)#86 + 557 x(87)#87 + 648 x(88)#88 + 585 x(89)#89
      + 607 x(90)#90 + 824 x(91)#91 + 647 x(92)#92 + 702 x(93)#93
      + 976 x(94)#94 + 736 x(95)#95 + 784 x(96)#96 + 822 x(97)#97
      + 425 x(98)#98 + 575 x(99)#99 + 535 x(100)#100 + 758 x(101)#101
      + 353 x(102)#102 + 1046 x(103)#103 + 988 x(104)#104 + 874 x(105)#105
      + 1033 x(106)#106 + 919 x(107)#107 + 602 x(108)#108 + 1115 x(109)#109
      + 981 x(110)#110 + 805 x(111)#111 + 686 x(112)#112 + 869 x(113)#113
      + 612 x(114)#114 + 1000 x(115)#115 + 646 x(116)#116 + 584 x(117)#117
      + 530 x(118)#118 + 807 x(119)#119 + 798 x(120)#120 + 591 x(121)#121
      + 519 x(122)#122 + 556 x(123)#123 + 1053 x(124)#124 + 1025 x(125)#125
      + 771 x(126)#126 + 1015 x(127)#127 + 845 x(128)#128 + 1053 x(129)#129
      + 1010 x(130)#130 + 721 x(131)#131 + 812 x(132)#132 + 494 x(133)#133
      + 951 x(134)#134 + 766 x(135)#135 + 480 x(136)#136 + 894 x(137)#137
      + 815 x(138)#138 + 717 x(139)#139 + 691 x(140)#140 + 1049 x(141)#141
      + 620 x(142)#142 + 1049 x(143)#143 + 478 x(144)#144 + 866 x(145)#145
      + 716 x(146)#146 + 606 x(147)#147 + 511 x(148)#148 + 802 x(149)#149
      + 668 x(150)#150 + 850 x(151)#151 + 758 x(152)#152 + 757 x(153)#153
      + 828 x(154)#154 + 500 x(155)#155 + 790 x(156)#156 + 877 x(157)#157
      + 1001 x(158)#158 + 700 x(159)#159 + 785 x(160)#160 + 787 x(161)#161
      + 990 x(162)#162 + 869 x(163)#163 + 502 x(164)#164 + 764 x(165)#165
      + 927 x(166)#166 + 749 x(167)#167 + 888 x(168)#168 + 995 x(169)#169
      + 457 x(170)#170 + 932 x(171)#171 + 615 x(172)#172 + 513 x(173)#173
      + 763 x(174)#174 + 862 x(175)#175 + 953 x(176)#176 + 719 x(177)#177
      + 957 x(178)#178 + 610 x(179)#179 + 529 x(180)#180 + 909 x(181)#181
      + 358 x(182)#182 + 649 x(183)#183 + 742 x(184)#184 + 1066 x(185)#185
      + 630 x(186)#186 + 686 x(187)#187 + 501 x(188)#188 + 805 x(189)#189
      + 707 x(190)#190 + 670 x(191)#191 + 852 x(192)#192 + 566 x(193)#193
      + 862 x(194)#194 + 844 x(195)#195 + 406 x(196)#196 + 1019 x(197)#197
      + 872 x(198)#198 + 796 x(199)#199 + 884 x(200)#200 + 706 x(201)#201
      + 601 x(202)#202 + 471 x(203)#203 + 862 x(204)#204 + 533 x(205)#205
      + 999 x(206)#206 + 449 x(207)#207 + 885 x(208)#208 + 717 x(209)#209
      + 924 x(210)#210 + 836 x(211)#211 + 703 x(212)#212 + 590 x(213)#213
      + 611 x(214)#214 + 1193 x(215)#215 + 771 x(216)#216 + 661 x(217)#217
      + 850 x(218)#218 + 731 x(219)#219 + 829 x(220)#220 + 441 x(221)#221
      + 711 x(222)#222 + 455 x(223)#223 + 917 x(224)#224 + 506 x(225)#225
      + 520 x(226)#226 + 684 x(227)#227 + 508 x(228)#228 + 1015 x(229)#229
      + 695 x(230)#230 + 635 x(231)#231 + 1163 x(232)#232 + 442 x(233)#233
      + 504 x(234)#234 + 872 x(235)#235 + 705 x(236)#236 + 619 x(237)#237
      + 827 x(238)#238 + 523 x(239)#239 + 950 x(240)#240 + 412 x(241)#241
      + 734 x(242)#242 + 862 x(243)#243 + 669 x(244)#244 + 508 x(245)#245
      + 316 x(246)#246 + 1013 x(247)#247 + 939 x(248)#248 + 962 x(249)#249
Subject To
 c1: 328 x(0)#0 + 679 x(1)#1 + 520 x(2)#2 + 716 x(3)#3 + 795 x(4)#4
     + 342 x(5)#5 + 364 x(6)#6 + 344 x(7)#7 + 43 x(8)#8 + 61 x(9)#9
     + 460 x(10)#10 + 424 x(11)#11 + 212 x(12)#12 + 447 x(13)#13 + 134 x(14)#14
     + 519 x(15)#15 + 395 x(16)#16 + 179 x(17)#17 + 673 x(18)#18 + 893 x(19)#19
     + 138 x(20)#20 + 869 x(21)#21 + 227 x(22)#22 + 825 x(23)#23 + 164 x(24)#24
     + 731 x(25)#25 + 336 x(26)#26 + 855 x(27)#27 + 487 x(28)#28 + 847 x(29)#29
     + 861 x(30)#30 + 575 x(31)#31 + 748 x(32)#32 + 134 x(33)#33 + 791 x(34)#34
     + 858 x(35)#35 + 288 x(36)#36 + 541 x(37)#37 + 55 x(38)#38 + 421 x(39)#39
     + 376 x(40)#40 + 959 x(41)#41 + 794 x(42)#42 + 308 x(43)#43 + 479 x(44)#44
     + 878 x(45)#45 + 881 x(46)#46 + 278 x(47)#47 + 119 x(48)#48 + 855 x(49)#49
     + 510 x(50)#50 + 234 x(51)#51 + 928 x(52)#52 + 668 x(53)#53 + 377 x(54)#54
     + 804 x(55)#55 + 52 x(56)#56 + 631 x(57)#57 + 341 x(58)#58 + 64 x(59)#59
     + 502 x(60)#60 + 396 x(61)#61 + 350 x(62)#62 + 674 x(63)#63 + 470 x(64)#64
     + 620 x(65)#65 + 431 x(66)#66 + 971 x(67)#67 + 966 x(68)#68 + 544 x(69)#69
     + 422 x(70)#70 + 797 x(71)#71 + 857 x(72)#72 + 860 x(73)#73 + 598 x(74)#74
     + 993 x(75)#75 + 320 x(76)#76 + 727 x(77)#77 + 871 x(78)#78 + 532 x(79)#79
     + 516 x(80)#80 + 580 x(81)#81 + 879 x(82)#82 + 182 x(83)#83 + 283 x(84)#84
     + 890 x(85)#85 + 631 x(86)#86 + 46 x(87)#87 + 739 x(88)#88 + 348 x(89)#89
     + 46 x(90)#90 + 766 x(91)#91 + 431 x(92)#92 + 111 x(93)#93 + 870 x(94)#94
     + 242 x(95)#95 + 317 x(96)#96 + 431 x(97)#97 + 720 x(98)#98 + 111 x(99)#99
     + 27 x(100)#100 + 752 x(101)#101 + 24 x(102)#102 + 622 x(103)#103
     + 517 x(104)#104 + 757 x(105)#105 + 624 x(106)#106 + 990 x(107)#107
     + 127 x(108)#108 + 531 x(109)#109 + 958 x(110)#110 + 259 x(111)#111
     + 562 x(112)#112 + 315 x(113)#113 + 117 x(114)#114 + 280 x(115)#115
     + 361 x(116)#116 + 945 x(117)#117 + 644 x(118)#118 + 229 x(119)#119
     + 329 x(120)#120 + 687 x(121)#121 + 177 x(122)#122 + 113 x(123)#123
     + 11 x(124)#124 + 689 x(125)#125 + 755 x(126)#126 + 702 x(127)#127
     + 24 x(128)#128 + 495 x(129)#129 + 817 x(130)#130 + 846 x(131)#131
     + 593 x(132)#132 + 117 x(133)#133 + 686 x(134)#134 + 105 x(135)#135
     + 227 x(136)#136 + 41 x(137)#137 + 810 x(138)#138 + 556 x(139)#139
     + 517 x(140)#140 + 841 x(141)#141 + 31 x(142)#142 + 561 x(143)#143
     + 146 x(144)#144 + 491 x(145)#145 + 672 x(146)#146 + 50 x(147)#147
     + 548 x(148)#148 + 793 x(149)#149 + 641 x(150)#150 + 394 x(151)#151
     + 927 x(152)#152 + 394 x(153)#153 + 574 x(154)#154 + 929 x(155)#155
     + 200 x(156)#156 + 538 x(157)#157 + 142 x(158)#158 + 69 x(159)#159
     + 561 x(160)#160 + 213 x(161)#161 + 228 x(162)#162 + 648 x(163)#163
     + 7 x(164)#164 + 142 x(165)#165 + 496 x(166)#166 + 583 x(167)#167
     + 398 x(168)#168 + 505 x(169)#169 + 130 x(170)#170 + 388 x(171)#171
     + 24 x(172)#172 + 458 x(173)#173 + 938 x(174)#174 + 136 x(175)#175
     + 154 x(176)#176 + 172 x(177)#177 + 407 x(178)#178 + 754 x(179)#179
     + 379 x(180)#180 + 713 x(181)#181 + 342 x(182)#182 + 405 x(183)#183
     + 779 x(184)#184 + 613 x(185)#185 + 191 x(186)#186 + 317 x(187)#187
     + 112 x(188)#188 + 153 x(189)#189 + 894 x(190)#190 + 720 x(191)#191
     + 272 x(192)#192 + 80 x(193)#193 + 870 x(194)#194 + 269 x(195)#195
     + 533 x(196)#196 + 579 x(197)#197 + 806 x(198)#198 + 214 x(199)#199
     + 43 x(200)#200 + 412 x(201)#201 + 49 x(202)#202 + 460 x(203)#203
     + 106 x(204)#204 + 805 x(205)#205 + 558 x(206)#206 + 38 x(207)#207
     + 84 x(208)#208 + 591 x(209)#209 + 764 x(210)#210 + 329 x(211)#211
     + 846 x(212)#212 + 466 x(213)#213 + 194 x(214)#214 + 487 x(215)#215
     + 671 x(216)#216 + 655 x(217)#217 + 394 x(218)#218 + 359 x(219)#219
     + 850 x(220)#220 + 814 x(221)#221 + 140 x(222)#222 + 392 x(223)#223
     + 803 x(224)#224 + 64 x(225)#225 + 546 x(226)#226 + 669 x(227)#227
     + 427 x(228)#228 + 732 x(229)#229 + 695 x(230)#230 + 55 x(231)#231
     + 483 x(232)#232 + 123 x(233)#233 + 838 x(234)#234 + 189 x(235)#235
     + 978 x(236)#236 + 787 x(237)#237 + 268 x(238)#238 + 148 x(239)#239
     + 735 x(240)#240 + 379 x(241)#241 + 900 x(242)#242 + 527 x(243)#243
     + 934 x(244)#244 + 666 x(245)#245 + 447 x(246)#246 + 454 x(247)#247
     + 690 x(248)#248 + 232 x(249)#249 <= 60297
 c2: 664 x(0)#0 + 806 x(1)#1 + 438 x(2)#2 + 818 x(3)#3 + 504 x(4)#4
     + 875 x(5)#5 + 108 x(6)#6 + 998 x(7)#7 + 166 x(8)#8 + 784 x(9)#9
     + 97 x(10)#10 + 227 x(11)#11 + 276 x(12)#12 + 218 x(13)#13 + 111 x(14)#14
     + 701 x(15)#15 + 418 x(16)#16 + 736 x(17)#17 + 8 x(18)#18 + 91 x(19)#19
     + 939 x(20)#20 + 475 x(21)#21 + 747 x(22)#22 + 641 x(23)#23 + 18 x(24)#24
     + 469 x(25)#25 + 9 x(26)#26 + 180 x(27)#27 + 74 x(28)#28 + 787 x(29)#29
     + 532 x(30)#30 + 225 x(31)#31 + 360 x(32)#32 + 689 x(33)#33 + 588 x(34)#34
     + 780 x(35)#35 + 409 x(36)#36 + 626 x(37)#37 + 977 x(38)#38 + 418 x(39)#39
     + 291 x(40)#40 + 293 x(41)#41 + 408 x(42)#42 + 469 x(43)#43 + 925 x(44)#44
     + 943 x(45)#45 + 390 x(46)#46 + 843 x(47)#47 + 357 x(48)#48 + 699 x(49)#49
     + 253 x(50)#50 + 493 x(51)#51 + 13 x(52)#52 + 385 x(53)#53 + 65 x(54)#54
     + 576 x(55)#55 + 268 x(56)#56 + 857 x(57)#57 + 433 x(58)#58 + 654 x(59)#59
     + 86 x(60)#60 + 717 x(61)#61 + 662 x(62)#62 + 681 x(63)#63 + 259 x(64)#64
     + 18 x(65)#65 + 237 x(66)#66 + 101 x(67)#67 + 473 x(68)#68 + 157 x(69)#69
     + 44 x(70)#70 + 259 x(71)#71 + 129 x(72)#72 + 318 x(73)#73 + 679 x(74)#74
     + 348 x(75)#75 + 513 x(76)#76 + 294 x(77)#77 + 88 x(78)#78 + 716 x(79)#79
     + 102 x(80)#80 + 727 x(81)#81 + 991 x(82)#82 + 250 x(83)#83 + 120 x(84)#84
     + 71 x(85)#85 + 703 x(86)#86 + 321 x(87)#87 + 379 x(88)#88 + 300 x(89)#89
     + 717 x(90)#90 + 56 x(91)#91 + 449 x(92)#92 + 910 x(93)#93 + 686 x(94)#94
     + 585 x(95)#95 + 481 x(96)#96 + 472 x(97)#97 + 472 x(98)#98 + 428 x(99)#99
     + 645 x(100)#100 + 108 x(101)#101 + 708 x(102)#102 + 857 x(103)#103
     + 999 x(104)#104 + 489 x(105)#105 + 150 x(106)#106 + 376 x(107)#107
     + 409 x(108)#108 + 998 x(109)#109 + 813 x(110)#110 + 352 x(111)#111
     + 215 x(112)#112 + 604 x(113)#113 + 424 x(114)#114 + 705 x(115)#115
     + 925 x(116)#116 + 85 x(117)#117 + 751 x(118)#118 + 947 x(119)#119
     + 31 x(120)#120 + 150 x(121)#121 + 597 x(122)#122 + 370 x(123)#123
     + 700 x(124)#124 + 853 x(125)#125 + 446 x(126)#126 + 784 x(127)#127
     + 794 x(128)#128 + 778 x(129)#129 + 140 x(130)#130 + 265 x(131)#131
     + 304 x(132)#132 + 711 x(133)#133 + 210 x(134)#134 + 485 x(135)#135
     + 102 x(136)#136 + 648 x(137)#137 + 517 x(138)#138 + 543 x(139)#139
     + 13 x(140)#140 + 305 x(141)#141 + 477 x(142)#142 + 952 x(143)#143
     + 437 x(144)#144 + 930 x(145)#145 + 975 x(146)#146 + 451 x(147)#147
     + 355 x(148)#148 + 571 x(149)#149 + 368 x(150)#150 + 158 x(151)#151
     + 479 x(152)#152 + 735 x(153)#153 + 497 x(154)#154 + 134 x(155)#155
     + 103 x(156)#156 + 626 x(157)#157 + 693 x(158)#158 + 599 x(159)#159
     + 613 x(160)#160 + 105 x(161)#161 + 707 x(162)#162 + 597 x(163)#163
     + 392 x(164)#164 + 22 x(165)#165 + 396 x(166)#166 + 814 x(167)#167
     + 285 x(168)#168 + 377 x(169)#169 + 468 x(170)#170 + 396 x(171)#171
     + 452 x(172)#172 + 126 x(173)#173 + 601 x(174)#174 + 651 x(175)#175
     + 91 x(176)#176 + 209 x(177)#177 + 988 x(178)#178 + 167 x(179)#179
     + 67 x(180)#180 + 569 x(181)#181 + 18 x(182)#182 + 363 x(183)#183
     + 628 x(184)#184 + 894 x(185)#185 + 297 x(186)#186 + 897 x(187)#187
     + 185 x(188)#188 + 900 x(189)#189 + 179 x(190)#190 + 981 x(191)#191
     + 699 x(192)#192 + 598 x(193)#193 + 165 x(194)#194 + 728 x(195)#195
     + 350 x(196)#196 + 761 x(197)#197 + 652 x(198)#198 + 684 x(199)#199
     + 278 x(200)#200 + 701 x(201)#201 + 308 x(202)#202 + 260 x(203)#203
     + 655 x(204)#204 + 196 x(205)#205 + 472 x(206)#206 + 218 x(207)#207
     + 143 x(208)#208 + 224 x(209)#209 + 264 x(210)#210 + 782 x(211)#211
     + 285 x(212)#212 + 407 x(213)#213 + 773 x(214)#214 + 833 x(215)#215
     + 262 x(216)#216 + 141 x(217)#217 + 798 x(218)#218 + 533 x(219)#219
     + 971 x(220)#220 + 245 x(221)#221 + 265 x(222)#222 + 282 x(223)#223
     + 227 x(224)#224 + 607 x(225)#225 + 120 x(226)#226 + 744 x(227)#227
     + 346 x(228)#228 + 936 x(229)#229 + 665 x(230)#230 + 105 x(231)#231
     + 919 x(232)#232 + 157 x(233)#233 + 99 x(234)#234 + 554 x(235)#235
     + 278 x(236)#236 + 845 x(237)#237 + 985 x(238)#238 + 124 x(239)#239
     + 210 x(240)#240 + 201 x(241)#241 + 289 x(242)#242 + 775 x(243)#243
     + 424 x(244)#244 + 77 x(245)#245 + 474 x(246)#246 + 545 x(247)#247
     + 580 x(248)#248 + 731 x(249)#249 <= 58416
 c3: 791 x(0)#0 + 161 x(1)#1 + 748 x(2)#2 + 52 x(3)#3 + 613 x(4)#4 + 559 x(5)#5
     + 255 x(6)#6 + 765 x(7)#7 + 174 x(8)#8 + 520 x(9)#9 + 347 x(10)#10
     + 451 x(11)#11 + 731 x(12)#12 + 250 x(13)#13 + 696 x(14)#14 + 255 x(15)#15
     + 59 x(16)#16 + 403 x(17)#17 + 473 x(18)#18 + 528 x(19)#19 + 575 x(20)#20
     + 474 x(21)#21 + 788 x(22)#22 + 339 x(23)#23 + 9 x(24)#24 + 178 x(25)#25
     + 701 x(26)#26 + 858 x(27)#27 + 335 x(28)#28 + 874 x(29)#29 + 591 x(30)#30
     + 432 x(31)#31 + 684 x(32)#32 + 758 x(33)#33 + 838 x(34)#34 + 304 x(35)#35
     + 961 x(36)#36 + 499 x(37)#37 + 717 x(38)#38 + 376 x(39)#39 + 382 x(40)#40
     + 709 x(41)#41 + 818 x(42)#42 + 34 x(43)#43 + 450 x(44)#44 + 697 x(45)#45
     + 747 x(46)#46 + 716 x(47)#47 + 859 x(48)#48 + 25 x(49)#49 + 423 x(50)#50
     + 292 x(51)#51 + 47 x(52)#52 + 75 x(53)#53 + 252 x(54)#54 + 117 x(55)#55
     + 55 x(56)#56 + 272 x(57)#57 + 828 x(58)#58 + 928 x(59)#59 + 110 x(60)#60
     + 597 x(61)#61 + 23 x(62)#62 + 683 x(63)#63 + 413 x(64)#64 + 779 x(65)#65
     + 519 x(66)#66 + 346 x(67)#67 + 116 x(68)#68 + 959 x(69)#69 + 661 x(70)#70
     + 25 x(71)#71 + 952 x(72)#72 + 289 x(73)#73 + 951 x(74)#74 + 540 x(75)#75
     + 727 x(76)#76 + 189 x(77)#77 + 318 x(78)#78 + 236 x(79)#79 + 396 x(80)#80
     + 652 x(81)#81 + 577 x(82)#82 + 778 x(83)#83 + 210 x(84)#84 + 831 x(85)#85
     + 91 x(86)#86 + 921 x(87)#87 + 747 x(88)#88 + 424 x(89)#89 + 13 x(90)#90
     + 822 x(91)#91 + 390 x(92)#92 + 425 x(93)#93 + 947 x(94)#94 + 438 x(95)#95
     + 834 x(96)#96 + 233 x(97)#97 + 103 x(98)#98 + 883 x(99)#99
     + 190 x(100)#100 + 962 x(101)#101 + 553 x(102)#102 + 198 x(103)#103
     + 84 x(104)#104 + 716 x(105)#105 + 737 x(106)#106 + 883 x(107)#107
     + 304 x(108)#108 + 871 x(109)#109 + 538 x(110)#110 + 255 x(111)#111
     + 484 x(112)#112 + 603 x(113)#113 + 878 x(114)#114 + 987 x(115)#115
     + 249 x(116)#116 + 119 x(117)#117 + 209 x(118)#118 + 413 x(119)#119
     + 629 x(120)#120 + 19 x(121)#121 + 495 x(122)#122 + 131 x(123)#123
     + 304 x(124)#124 + 239 x(125)#125 + 548 x(126)#126 + 623 x(127)#127
     + 956 x(128)#128 + 911 x(129)#129 + 704 x(130)#130 + 209 x(131)#131
     + 671 x(132)#132 + 469 x(133)#133 + 967 x(134)#134 + 432 x(135)#135
     + 130 x(136)#136 + 69 x(137)#137 + 897 x(138)#138 + 637 x(139)#139
     + 767 x(140)#140 + 358 x(141)#141 + 950 x(142)#142 + 189 x(143)#143
     + 629 x(144)#144 + 678 x(145)#145 + 999 x(146)#146 + 509 x(147)#147
     + 651 x(148)#148 + 715 x(149)#149 + 389 x(150)#150 + 699 x(151)#151
     + 166 x(152)#152 + 224 x(153)#153 + 243 x(154)#154 + 345 x(155)#155
     + 818 x(156)#156 + 550 x(157)#157 + 658 x(158)#158 + 376 x(159)#159
     + 778 x(160)#160 + 926 x(161)#161 + 856 x(162)#162 + 981 x(163)#163
     + 48 x(164)#164 + 303 x(165)#165 + 591 x(166)#166 + 470 x(167)#167
     + 667 x(168)#168 + 372 x(169)#169 + 415 x(170)#170 + 436 x(171)#171
     + 235 x(172)#172 + 363 x(173)#173 + 443 x(174)#174 + 894 x(175)#175
     + 790 x(176)#176 + 230 x(177)#177 + 180 x(178)#178 + 65 x(179)#179
     + 208 x(180)#180 + 793 x(181)#181 + 760 x(182)#182 + 625 x(183)#183
     + 508 x(184)#184 + 760 x(185)#185 + 256 x(186)#186 + 774 x(187)#187
     + 510 x(188)#188 + 574 x(189)#189 + 757 x(190)#190 + 575 x(191)#191
     + 988 x(192)#192 + 405 x(193)#193 + 664 x(194)#194 + 447 x(195)#195
     + 183 x(196)#196 + 761 x(197)#197 + 67 x(198)#198 + 498 x(199)#199
     + 957 x(200)#200 + 506 x(201)#201 + 538 x(202)#202 + 270 x(203)#203
     + 900 x(204)#204 + 533 x(205)#205 + 785 x(206)#206 + 274 x(207)#207
     + 383 x(208)#208 + 162 x(209)#209 + 389 x(210)#210 + 199 x(211)#211
     + 552 x(212)#212 + 468 x(213)#213 + 866 x(214)#214 + 785 x(215)#215
     + 265 x(216)#216 + 130 x(217)#217 + 800 x(218)#218 + 323 x(219)#219
     + 954 x(220)#220 + 160 x(221)#221 + 204 x(222)#222 + 309 x(223)#223
     + 962 x(224)#224 + 28 x(225)#225 + 727 x(226)#226 + 216 x(227)#227
     + 478 x(228)#228 + 770 x(229)#229 + 609 x(230)#230 + 211 x(231)#231
     + 954 x(232)#232 + 367 x(233)#233 + 11 x(234)#234 + 725 x(235)#235
     + 27 x(236)#236 + 453 x(237)#237 + 928 x(238)#238 + 369 x(239)#239
     + 744 x(240)#240 + 163 x(241)#241 + 321 x(242)#242 + 815 x(243)#243
     + 388 x(244)#244 + 249 x(245)#245 + 130 x(246)#246 + 209 x(247)#247
     + 268 x(248)#248 + 391 x(249)#249 <= 62282
 c4: 97 x(0)#0 + 793 x(1)#1 + 336 x(2)#2 + 323 x(3)#3 + 472 x(4)#4 + 411 x(5)#5
     + 532 x(6)#6 + 724 x(7)#7 + 374 x(8)#8 + 718 x(9)#9 + 636 x(10)#10
     + 426 x(11)#11 + 546 x(12)#12 + 281 x(13)#13 + 65 x(14)#14 + 633 x(15)#15
     + 378 x(16)#16 + 279 x(17)#17 + 718 x(18)#18 + 338 x(19)#19 + 167 x(20)#20
     + 266 x(21)#21 + 433 x(22)#22 + 472 x(23)#23 + 473 x(24)#24 + 409 x(25)#25
     + 954 x(26)#26 + 818 x(27)#27 + 626 x(28)#28 + 674 x(29)#29 + 501 x(30)#30
     + 846 x(31)#31 + 939 x(32)#32 + 806 x(33)#33 + 680 x(34)#34 + 784 x(35)#35
     + 680 x(36)#36 + 919 x(37)#37 + 451 x(38)#38 + 509 x(39)#39 + 501 x(40)#40
     + 50 x(41)#41 + 505 x(42)#42 + 226 x(43)#43 + 925 x(44)#44 + 819 x(45)#45
     + 387 x(46)#46 + 539 x(47)#47 + 375 x(48)#48 + 469 x(49)#49 + 151 x(50)#50
     + 108 x(51)#51 + 911 x(52)#52 + 263 x(53)#53 + 931 x(54)#54 + 113 x(55)#55
     + 837 x(56)#56 + 605 x(57)#57 + 868 x(58)#58 + 255 x(59)#59 + 767 x(60)#60
     + 700 x(61)#61 + 405 x(62)#62 + 887 x(63)#63 + 848 x(64)#64 + 579 x(65)#65
     + 544 x(66)#66 + 358 x(67)#67 + 597 x(68)#68 + 386 x(69)#69 + 693 x(70)#70
     + 413 x(71)#71 + 963 x(72)#72 + 595 x(73)#73 + 166 x(74)#74 + 601 x(75)#75
     + 67 x(76)#76 + 987 x(77)#77 + 702 x(78)#78 + 866 x(79)#79 + 305 x(80)#80
     + 959 x(81)#81 + 37 x(82)#82 + 548 x(83)#83 + 751 x(84)#84 + 862 x(85)#85
     + 941 x(86)#86 + 359 x(87)#87 + 900 x(88)#88 + 619 x(89)#89 + 513 x(90)#90
     + 343 x(91)#91 + 620 x(92)#92 + 247 x(93)#93 + 642 x(94)#94 + 923 x(95)#95
     + 838 x(96)#96 + 688 x(97)#97 + 329 x(98)#98 + 566 x(99)#99
     + 335 x(100)#100 + 804 x(101)#101 + 156 x(102)#102 + 791 x(103)#103
     + 650 x(104)#104 + 867 x(105)#105 + 841 x(106)#106 + 152 x(107)#107
     + 780 x(108)#108 + 848 x(109)#109 + 788 x(110)#110 + 880 x(111)#111
     + 433 x(112)#112 + 237 x(113)#113 + 928 x(114)#114 + 377 x(115)#115
     + 625 x(116)#116 + 81 x(117)#117 + 319 x(118)#118 + 338 x(119)#119
     + 951 x(120)#120 + 491 x(121)#121 + 881 x(122)#122 + 962 x(123)#123
     + 895 x(124)#124 + 787 x(125)#125 + 262 x(126)#126 + 145 x(127)#127
     + 957 x(128)#128 + 69 x(129)#129 + 740 x(130)#130 + 863 x(131)#131
     + 654 x(132)#132 + 141 x(133)#133 + 959 x(134)#134 + 704 x(135)#135
     + 408 x(136)#136 + 737 x(137)#137 + 524 x(138)#138 + 110 x(139)#139
     + 448 x(140)#140 + 977 x(141)#141 + 36 x(142)#142 + 469 x(143)#143
     + 54 x(144)#144 + 151 x(145)#145 + 216 x(146)#146 + 252 x(147)#147
     + 114 x(148)#148 + 606 x(149)#149 + 913 x(150)#150 + 425 x(151)#151
     + 702 x(152)#152 + 389 x(153)#153 + 501 x(154)#154 + 233 x(155)#155
     + 185 x(156)#156 + 1000 x(157)#157 + 840 x(158)#158 + 530 x(159)#159
     + 519 x(160)#160 + 18 x(161)#161 + 552 x(162)#162 + 569 x(163)#163
     + 729 x(164)#164 + 877 x(165)#165 + 143 x(166)#166 + 610 x(167)#167
     + 653 x(168)#168 + 901 x(169)#169 + 46 x(170)#170 + 411 x(171)#171
     + 334 x(172)#172 + 159 x(173)#173 + 598 x(174)#174 + 232 x(175)#175
     + 961 x(176)#176 + 445 x(177)#177 + 830 x(178)#178 + 228 x(179)#179
     + 685 x(180)#180 + 639 x(181)#181 + 491 x(182)#182 + 548 x(183)#183
     + 968 x(184)#184 + 72 x(185)#185 + 275 x(186)#186 + 140 x(187)#187
     + 425 x(188)#188 + 542 x(189)#189 + 336 x(190)#190 + 141 x(191)#191
     + 794 x(192)#192 + 887 x(193)#193 + 381 x(194)#194 + 477 x(195)#195
     + 81 x(196)#196 + 700 x(197)#197 + 970 x(198)#198 + 909 x(199)#199
     + 298 x(200)#200 + 182 x(201)#201 + 311 x(202)#202 + 624 x(203)#203
     + 583 x(204)#204 + 691 x(205)#205 + 546 x(206)#206 + 857 x(207)#207
     + 978 x(208)#208 + 383 x(209)#209 + 537 x(210)#210 + 762 x(211)#211
     + 448 x(212)#212 + 890 x(213)#213 + 278 x(214)#214 + 652 x(215)#215
     + 758 x(216)#216 + 662 x(217)#217 + 341 x(218)#218 + 833 x(219)#219
     + 505 x(220)#220 + 45 x(221)#221 + 167 x(222)#222 + 755 x(223)#223
     + 623 x(224)#224 + 924 x(225)#225 + 147 x(226)#226 + 706 x(227)#227
     + 110 x(228)#228 + 505 x(229)#229 + 858 x(230)#230 + 624 x(231)#231
     + 983 x(232)#232 + 998 x(233)#233 + 64 x(234)#234 + 21 x(235)#235
     + 522 x(236)#236 + 307 x(237)#237 + 641 x(238)#238 + 49 x(239)#239
     + 425 x(240)#240 + 661 x(241)#241 + 409 x(242)#242 + 477 x(243)#243
     + 628 x(244)#244 + 208 x(245)#245 + 417 x(246)#246 + 1000 x(247)#247
     + 112 x(248)#248 + 638 x(249)#249 <= 67185
 c5: 746 x(0)#0 + 170 x(1)#1 + 887 x(2)#2 + 885 x(3)#3 + 203 x(4)#4 + 3 x(5)#5
     + 805 x(6)#6 + 737 x(7)#7 + 611 x(8)#8 + 385 x(9)#9 + 631 x(10)#10
     + 934 x(11)#11 + 445 x(12)#12 + 491 x(13)#13 + 612 x(14)#14 + 124 x(15)#15
     + 815 x(16)#16 + 969 x(17)#17 + 57 x(18)#18 + 488 x(19)#19 + 865 x(20)#20
     + 63 x(21)#21 + 117 x(22)#22 + 263 x(23)#23 + 126 x(24)#24 + 166 x(25)#25
     + 329 x(26)#26 + 258 x(27)#27 + 275 x(28)#28 + 641 x(29)#29 + 566 x(30)#30
     + 303 x(31)#31 + 306 x(32)#32 + 871 x(33)#33 + 451 x(34)#34 + 877 x(35)#35
     + 6 x(36)#36 + 765 x(37)#37 + 941 x(38)#38 + 990 x(39)#39 + 300 x(40)#40
     + 505 x(41)#41 + 573 x(42)#42 + 602 x(43)#43 + 61 x(44)#44 + 335 x(45)#45
     + 888 x(46)#46 + 927 x(47)#47 + 686 x(48)#48 + 308 x(49)#49 + 738 x(50)#50
     + 690 x(51)#51 + 124 x(52)#52 + 172 x(53)#53 + 135 x(54)#54 + 836 x(55)#55
     + 904 x(56)#56 + 555 x(57)#57 + 71 x(58)#58 + 374 x(59)#59 + 911 x(60)#60
     + 638 x(61)#61 + 687 x(62)#62 + 323 x(63)#63 + 909 x(64)#64 + 591 x(65)#65
     + 423 x(66)#66 + 119 x(67)#67 + 591 x(68)#68 + 242 x(69)#69 + 591 x(70)#70
     + 474 x(71)#71 + 885 x(72)#72 + 227 x(73)#73 + 744 x(74)#74 + 100 x(75)#75
     + 258 x(76)#76 + 763 x(77)#77 + 476 x(78)#78 + 601 x(79)#79 + 868 x(80)#80
     + 279 x(81)#81 + 533 x(82)#82 + 577 x(83)#83 + 9 x(84)#84 + 735 x(85)#85
     + 55 x(86)#86 + 318 x(87)#87 + 263 x(88)#88 + 239 x(89)#89 + 949 x(90)#90
     + 637 x(91)#91 + 66 x(92)#92 + 375 x(93)#93 + 772 x(94)#94 + 488 x(95)#95
     + 284 x(96)#96 + 155 x(97)#97 + 209 x(98)#98 + 377 x(99)#99
     + 430 x(100)#100 + 882 x(101)#101 + 114 x(102)#102 + 575 x(103)#103
     + 809 x(104)#104 + 646 x(105)#105 + 831 x(106)#106 + 998 x(107)#107
     + 738 x(108)#108 + 400 x(109)#109 + 72 x(110)#110 + 768 x(111)#111
     + 625 x(112)#112 + 289 x(113)#113 + 220 x(114)#114 + 326 x(115)#115
     + 104 x(116)#116 + 593 x(117)#117 + 252 x(118)#118 + 540 x(119)#119
     + 100 x(120)#120 + 280 x(121)#121 + 11 x(122)#122 + 103 x(123)#123
     + 941 x(124)#124 + 253 x(125)#125 + 148 x(126)#126 + 415 x(127)#127
     + 230 x(128)#128 + 554 x(129)#129 + 793 x(130)#130 + 165 x(131)#131
     + 379 x(132)#132 + 219 x(133)#133 + 368 x(134)#134 + 803 x(135)#135
     + 581 x(136)#136 + 723 x(137)#137 + 171 x(138)#138 + 838 x(139)#139
     + 663 x(140)#140 + 421 x(141)#141 + 867 x(142)#142 + 805 x(143)#143
     + 525 x(144)#144 + 147 x(145)#145 + 293 x(146)#146 + 782 x(147)#147
     + 377 x(148)#148 + 905 x(149)#149 + 63 x(150)#150 + 157 x(151)#151
     + 78 x(152)#152 + 606 x(153)#153 + 115 x(154)#154 + 804 x(155)#155
     + 425 x(156)#156 + 223 x(157)#157 + 640 x(158)#158 + 313 x(159)#159
     + 82 x(160)#160 + 412 x(161)#161 + 345 x(162)#162 + 505 x(163)#163
     + 822 x(164)#164 + 40 x(165)#165 + 935 x(166)#166 + 496 x(167)#167
     + 322 x(168)#168 + 889 x(169)#169 + 748 x(170)#170 + 910 x(171)#171
     + 647 x(172)#172 + 555 x(173)#173 + 318 x(174)#174 + 520 x(175)#175
     + 441 x(176)#176 + 828 x(177)#177 + 824 x(178)#178 + 844 x(179)#179
     + 789 x(180)#180 + 615 x(181)#181 + 88 x(182)#182 + 187 x(183)#183
     + 237 x(184)#184 + 850 x(185)#185 + 835 x(186)#186 + 516 x(187)#187
     + 861 x(188)#188 + 22 x(189)#189 + 336 x(190)#190 + 284 x(191)#191
     + 786 x(192)#192 + 58 x(193)#193 + 143 x(194)#194 + 863 x(195)#195
     + 528 x(196)#196 + 446 x(197)#197 + 199 x(198)#198 + 580 x(199)#199
     + 689 x(200)#200 + 440 x(201)#201 + 122 x(202)#202 + 172 x(203)#203
     + 764 x(204)#204 + 313 x(205)#205 + 377 x(206)#206 + 10 x(207)#207
     + 851 x(208)#208 + 244 x(209)#209 + 535 x(210)#210 + 847 x(211)#211
     + 451 x(212)#212 + 220 x(213)#213 + 495 x(214)#214 + 772 x(215)#215
     + 849 x(216)#216 + 43 x(217)#217 + 788 x(218)#218 + 455 x(219)#219
     + 513 x(220)#220 + 402 x(221)#221 + 820 x(222)#222 + 489 x(223)#223
     + 358 x(224)#224 + 219 x(225)#225 + 347 x(226)#226 + 677 x(227)#227
     + 720 x(228)#228 + 559 x(229)#229 + 41 x(230)#230 + 881 x(231)#231
     + 409 x(232)#232 + 145 x(233)#233 + 268 x(234)#234 + 634 x(235)#235
     + 5 x(236)#236 + 223 x(237)#237 + 28 x(238)#238 + 33 x(239)#239
     + 309 x(240)#240 + 172 x(241)#241 + 792 x(242)#242 + 567 x(243)#243
     + 235 x(244)#244 + 231 x(245)#245 + 107 x(246)#246 + 881 x(247)#247
     + 866 x(248)#248 + 849 x(249)#249 <= 59561
Bounds
 0 <= x(0)#0 <= 1
 0 <= x(1)#1 <= 1
 0 <= x(2)#2 <= 1
 0 <= x(3)#3 <= 1
 0 <= x(4)#4 <= 1
 0 <= x(5)#5 <= 1
 0 <= x(6)#6 <= 1
 0 <= x(7)#7 <= 1
 0 <= x(8)#8 <= 1
 0 <= x(9)#9 <= 1
 0 <= x(10)#10 <= 1
 0 <= x(11)#11 <= 1
 0 <= x(12)#12 <= 1
 0 <= x(13)#13 <= 1
 0 <= x(14)#14 <= 1
 0 <= x(15)#15 <= 1
 0 <= x(16)#16 <= 1
 0 <= x(17)#17 <= 1
 0 <= x(18)#18 <= 1
 0 <= x(19)#19 <= 1
 0 <= x(20)#20 <= 1
 0 <= x(21)#21 <= 1
 0 <= x(22)#22 <= 1
 0 <= x(23)#23 <= 1
 0 <= x(24)#24 <= 1
 0 <= x(25)#25 <= 1
 0 <= x(26)#26 <= 1
 0 <= x(27)#27 <= 1
 0 <= x(28)#28 <= 1
 0 <= x(29)#29 <= 1
 0 <= x(30)#30 <= 1
 0 <= x(31)#31 <= 1
 0 <= x(32)#32 <= 1
 0 <= x(33)#33 <= 1
 0 <= x(34)#34 <= 1
 0 <= x(35)#35 <= 1
 0 <= x(36)#36 <= 1
 0 <= x(37)#37 <= 1
 0 <= x(38)#38 <= 1
 0 <= x(39)#39 <= 1
 0 <= x(40)#40 <= 1
 0 <= x(41)#41 <= 1
 0 <= x(42)#42 <= 1
 0 <= x(43)#43 <= 1
 0 <= x(44)#44 <= 1
 0 <= x(45)#45 <= 1
 0 <= x(46)#46 <= 1
 0 <= x(47)#47 <= 1
 0 <= x(48)#48 <= 1
 0 <= x(49)#49 <= 1
 0 <= x(50)#50 <= 1
 0 <= x(51)#51 <= 1
 0 <= x(52)#52 <= 1
 0 <= x(53)#53 <= 1
 0 <= x(54)#54 <= 1
 0 <= x(55)#55 <= 1
 0 <= x(56)#56 <= 1
 0 <= x(57)#57 <= 1
 0 <= x(58)#58 <= 1
 0 <= x(59)#59 <= 1
 0 <= x(60)#60 <= 1
 0 <= x(61)#61 <= 1
 0 <= x(62)#62 <= 1
 0 <= x(63)#63 <= 1
 0 <= x(64)#64 <= 1
 0 <= x(65)#65 <= 1
 0 <= x(66)#66 <= 1
 0 <= x(67)#67 <= 1
 0 <= x(68)#68 <= 1
 0 <= x(69)#69 <= 1
 0 <= x(70)#70 <= 1
 0 <= x(71)#71 <= 1
 0 <= x(72)#72 <= 1
 0 <= x(73)#73 <= 1
 0 <= x(74)#74 <= 1
 0 <= x(75)#75 <= 1
 0 <= x(76)#76 <= 1
 0 <= x(77)#77 <= 1
 0 <= x(78)#78 <= 1
 0 <= x(79)#79 <= 1
 0 <= x(80)#80 <= 1
 0 <= x(81)#81 <= 1
 0 <= x(82)#82 <= 1
 0 <= x(83)#83 <= 1
 0 <= x(84)#84 <= 1
 0 <= x(85)#85 <= 1
 0 <= x(86)#86 <= 1
 0 <= x(87)#87 <= 1
 0 <= x(88)#88 <= 1
 0 <= x(89)#89 <= 1
 0 <= x(90)#90 <= 1
 0 <= x(91)#91 <= 1
 0 <= x(92)#92 <= 1
 0 <= x(93)#93 <= 1
 0 <= x(94)#94 <= 1
 0 <= x(95)#95 <= 1
 0 <= x(96)#96 <= 1
 0 <= x(97)#97 <= 1
 0 <= x(98)#98 <= 1
 0 <= x(99)#99 <= 1
 0 <= x(100)#100 <= 1
 0 <= x(101)#101 <= 1
 0 <= x(102)#102 <= 1
 0 <= x(103)#103 <= 1
 0 <= x(104)#104 <= 1
 0 <= x(105)#105 <= 1
 0 <= x(106)#106 <= 1
 0 <= x(107)#107 <= 1
 0 <= x(108)#108 <= 1
 0 <= x(109)#109 <= 1
 0 <= x(110)#110 <= 1
 0 <= x(111)#111 <= 1
 0 <= x(112)#112 <= 1
 0 <= x(113)#113 <= 1
 0 <= x(114)#114 <= 1
 0 <= x(115)#115 <= 1
 0 <= x(116)#116 <= 1
 0 <= x(117)#117 <= 1
 0 <= x(118)#118 <= 1
 0 <= x(119)#119 <= 1
 0 <= x(120)#120 <= 1
 0 <= x(121)#121 <= 1
 0 <= x(122)#122 <= 1
 0 <= x(123)#123 <= 1
 0 <= x(124)#124 <= 1
 0 <= x(125)#125 <= 1
 0 <= x(126)#126 <= 1
 0 <= x(127)#127 <= 1
 0 <= x(128)#128 <= 1
 0 <= x(129)#129 <= 1
 0 <= x(130)#130 <= 1
 0 <= x(131)#131 <= 1
 0 <= x(132)#132 <= 1
 0 <= x(133)#133 <= 1
 0 <= x(134)#134 <= 1
 0 <= x(135)#135 <= 1
 0 <= x(136)#136 <= 1
 0 <= x(137)#137 <= 1
 0 <= x(138)#138 <= 1
 0 <= x(139)#139 <= 1
 0 <= x(140)#140 <= 1
 0 <= x(141)#141 <= 1
 0 <= x(142)#142 <= 1
 0 <= x(143)#143 <= 1
 0 <= x(144)#144 <= 1
 0 <= x(145)#145 <= 1
 0 <= x(146)#146 <= 1
 0 <= x(147)#147 <= 1
 0 <= x(148)#148 <= 1
 0 <= x(149)#149 <= 1
 0 <= x(150)#150 <= 1
 0 <= x(151)#151 <= 1
 0 <= x(152)#152 <= 1
 0 <= x(153)#153 <= 1
 0 <= x(154)#154 <= 1
 0 <= x(155)#155 <= 1
 0 <= x(156)#156 <= 1
 0 <= x(157)#157 <= 1
 0 <= x(158)#158 <= 1
 0 <= x(159)#159 <= 1
 0 <= x(160)#160 <= 1
 0 <= x(161)#161 <= 1
 0 <= x(162)#162 <= 1
 0 <= x(163)#163 <= 1
 0 <= x(164)#164 <= 1
 0 <= x(165)#165 <= 1
 0 <= x(166)#166 <= 1
 0 <= x(167)#167 <= 1
 0 <= x(168)#168 <= 1
 0 <= x(169)#169 <= 1
 0 <= x(170)#170 <= 1
 0 <= x(171)#171 <= 1
 0 <= x(172)#172 <= 1
 0 <= x(173)#173 <= 1
 0 <= x(174)#174 <= 1
 0 <= x(175)#175 <= 1
 0 <= x(176)#176 <= 1
 0 <= x(177)#177 <= 1
 0 <= x(178)#178 <= 1
 0 <= x(179)#179 <= 1
 0 <= x(180)#180 <= 1
 0 <= x(181)#181 <= 1
 0 <= x(182)#182 <= 1
 0 <= x(183)#183 <= 1
 0 <= x(184)#184 <= 1
 0 <= x(185)#185 <= 1
 0 <= x(186)#186 <= 1
 0 <= x(187)#187 <= 1
 0 <= x(188)#188 <= 1
 0 <= x(189)#189 <= 1
 0 <= x(190)#190 <= 1
 0 <= x(191)#191 <= 1
 0 <= x(192)#192 <= 1
 0 <= x(193)#193 <= 1
 0 <= x(194)#194 <= 1
 0 <= x(195)#195 <= 1
 0 <= x(196)#196 <= 1
 0 <= x(197)#197 <= 1
 0 <= x(198)#198 <= 1
 0 <= x(199)#199 <= 1
 0 <= x(200)#200 <= 1
 0 <= x(201)#201 <= 1
 0 <= x(202)#202 <= 1
 0 <= x(203)#203 <= 1
 0 <= x(204)#204 <= 1
 0 <= x(205)#205 <= 1
 0 <= x(206)#206 <= 1
 0 <= x(207)#207 <= 1
 0 <= x(208)#208 <= 1
 0 <= x(209)#209 <= 1
 0 <= x(210)#210 <= 1
 0 <= x(211)#211 <= 1
 0 <= x(212)#212 <= 1
 0 <= x(213)#213 <= 1
 0 <= x(214)#214 <= 1
 0 <= x(215)#215 <= 1
 0 <= x(216)#216 <= 1
 0 <= x(217)#217 <= 1
 0 <= x(218)#218 <= 1
 0 <= x(219)#219 <= 1
 0 <= x(220)#220 <= 1
 0 <= x(221)#221 <= 1
 0 <= x(222)#222 <= 1
 0 <= x(223)#223 <= 1
 0 <= x(224)#224 <= 1
 0 <= x(225)#225 <= 1
 0 <= x(226)#226 <= 1
 0 <= x(227)#227 <= 1
 0 <= x(228)#228 <= 1
 0 <= x(229)#229 <= 1
 0 <= x(230)#230 <= 1
 0 <= x(231)#231 <= 1
 0 <= x(232)#232 <= 1
 0 <= x(233)#233 <= 1
 0 <= x(234)#234 <= 1
 0 <= x(235)#235 <= 1
 0 <= x(236)#236 <= 1
 0 <= x(237)#237 <= 1
 0 <= x(238)#238 <= 1
 0 <= x(239)#239 <= 1
 0 <= x(240)#240 <= 1
 0 <= x(241)#241 <= 1
 0 <= x(242)#242 <= 1
 0 <= x(243)#243 <= 1
 0 <= x(244)#244 <= 1
 0 <= x(245)#245 <= 1
 0 <= x(246)#246 <= 1
 0 <= x(247)#247 <= 1
 0 <= x(248)#248 <= 1
 0 <= x(249)#249 <= 1
Generals
 x(0)#0  x(1)#1  x(2)#2  x(3)#3  x(4)#4  x(5)#5  x(6)#6  x(7)#7  x(8)#8 
 x(9)#9  x(10)#10  x(11)#11  x(12)#12  x(13)#13  x(14)#14  x(15)#15  x(16)#16 
 x(17)#17  x(18)#18  x(19)#19  x(20)#20  x(21)#21  x(22)#22  x(23)#23 
 x(24)#24  x(25)#25  x(26)#26  x(27)#27  x(28)#28  x(29)#29  x(30)#30 
 x(31)#31  x(32)#32  x(33)#33  x(34)#34  x(35)#35  x(36)#36  x(37)#37 
 x(38)#38  x(39)#39  x(40)#40  x(41)#41  x(42)#42  x(43)#43  x(44)#44 
 x(45)#45  x(46)#46  x(47)#47  x(48)#48  x(49)#49  x(50)#50  x(51)#51 
 x(52)#52  x(53)#53  x(54)#54  x(55)#55  x(56)#56  x(57)#57  x(58)#58 
 x(59)#59  x(60)#60  x(61)#61  x(62)#62  x(63)#63  x(64)#64  x(65)#65 
 x(66)#66  x(67)#67  x(68)#68  x(69)#69  x(70)#70  x(71)#71  x(72)#72 
 x(73)#73  x(74)#74  x(75)#75  x(76)#76  x(77)#77  x(78)#78  x(79)#79 
 x(80)#80  x(81)#81  x(82)#82  x(83)#83  x(84)#84  x(85)#85  x(86)#86 
 x(87)#87  x(88)#88  x(89)#89  x(90)#90  x(91)#91  x(92)#92  x(93)#93 
 x(94)#94  x(95)#95  x(96)#96  x(97)#97  x(98)#98  x(99)#99  x(100)#100 
 x(101)#101  x(102)#102  x(103)#103  x(104)#104  x(105)#105  x(106)#106 
 x(107)#107  x(108)#108  x(109)#109  x(110)#110  x(111)#111  x(112)#112 
 x(113)#113  x(114)#114  x(115)#115  x(116)#116  x(117)#117  x(118)#118 
 x(119)#119  x(120)#120  x(121)#121  x(122)#122  x(123)#123  x(124)#124 
 x(125)#125  x(126)#126  x(127)#127  x(128)#128  x(129)#129  x(130)#130 
 x(131)#131  x(132)#132  x(133)#133  x(134)#134  x(135)#135  x(136)#136 
 x(137)#137  x(138)#138  x(139)#139  x(140)#140  x(141)#141  x(142)#142 
 x(143)#143  x(144)#144  x(145)#145  x(146)#146  x(147)#147  x(148)#148 
 x(149)#149  x(150)#150  x(151)#151  x(152)#152  x(153)#153  x(154)#154 
 x(155)#155  x(156)#156  x(157)#157  x(158)#158  x(159)#159  x(160)#160 
 x(161)#161  x(162)#162  x(163)#163  x(164)#164  x(165)#165  x(166)#166 
 x(167)#167  x(168)#168  x(169)#169  x(170)#170  x(171)#171  x(172)#172 
 x(173)#173  x(174)#174  x(175)#175  x(176)#176  x(177)#177  x(178)#178 
 x(179)#179  x(180)#180  x(181)#181  x(182)#182  x(183)#183  x(184)#184 
 x(185)#185  x(186)#186  x(187)#187  x(188)#188  x(189)#189  x(190)#190 
 x(191)#191  x(192)#192  x(193)#193  x(194)#194  x(195)#195  x(196)#196 
 x(197)#197  x(198)#198  x(199)#199  x(200)#200  x(201)#201  x(202)#202 
 x(203)#203  x(204)#204  x(205)#205  x(206)#206  x(207)#207  x(208)#208 
 x(209)#209  x(210)#210  x(211)#211  x(212)#212  x(213)#213  x(214)#214 
 x(215)#215  x(216)#216  x(217)#217  x(218)#218  x(219)#219  x(220)#220 
 x(221)#221  x(222)#222  x(223)#223  x(224)#224  x(225)#225  x(226)#226 
 x(227)#227  x(228)#228  x(229)#229  x(230)#230  x(231)#231  x(232)#232 
 x(233)#233  x(234)#234  x(235)#235  x(236)#236  x(237)#237  x(238)#238 
 x(239)#239  x(240)#240  x(241)#241  x(242)#242  x(243)#243  x(244)#244 
 x(245)#245  x(246)#246  x(247)#247  x(248)#248  x(249)#249 
End
